JulietBench/Juliet_Based_Patch_Bench/linux/CWE-189-Numeric-Errors/CVE_2007_4997_04045f98e0457aba7d4e6736f37eed189c48a5f7/Resultieee80211_rx_Snippet_patch2NEQ.smt2
; benchmark generated from python API
(set-info :status unknown)
(declare-fun R () (_ BitVec 32))
(declare-fun rdi () (_ BitVec 64))
(declare-fun rsi () (_ BitVec 64))
(assert
 (let (($x442 (and (distinct (_ bv15 32) R) true)))
 (let (($x30 (= (_ bv4294967295 32) R)))
 (let ((?x6 ((_ extract 31 0) rdi)))
 (let (($x13 (bvsge (_ bv9 32) ?x6)))
 (let (($x29 (and $x13 $x30)))
 (let (($x446 (= R ?x6)))
 (let (($x43 (bvslt (_ bv9 32) ?x6)))
 (let ((?x8 ((_ extract 31 0) rsi)))
 (let ((?x47 (bvadd ?x8 (_ bv2 32))))
 (let (($x58 (bvsle ?x6 ?x47)))
 (let (($x15 (and $x58 $x43 $x446)))
 (let (($x449 (= R ?x8)))
 (let (($x447 (bvsgt ?x6 ?x47)))
 (let (($x443 (and $x447 $x43 $x449)))
 (let (($x31 (or $x443 $x15 $x29)))
 (let (($x445 (not $x31)))
 (let (($x444 (and $x445 $x442)))
 (let (($x21 (= (_ bv15 32) R)))
 (let (($x44 (and $x31 $x21)))
 (let (($x32 (or $x44 $x444)))
 (not $x32))))))))))))))))))))))
(check-sat)
